NAME : cvrp-A-G-100-13.2885.tour
COMMENT : Length = 2885
COMMENT : Found by LKH [Keld Helsgaun] Thu May 17 22:42:31 2018
TYPE : TOUR
DIMENSION : 31
TOUR_SECTION
1
17
21
14
9
16
30
25
7
12
13
20
29
26
10
15
2
19
24
18
23
22
6
3
5
28
31
4
8
11
27
-1
EOF
